10
1 0 79
2 0 32
2 1 151
3 0 21
3 1 100
3 2 19
4 0 47
4 1 77
4 3 120
6 0 93
6 1 73
6 2 10
6 3 118
6 4 16
6 5 3
7 0 2
7 1 52
7 2 86
7 4 64
7 5 112
7 6 33
8 0 24
8 1 135
8 2 103
8 3 56
8 4 72
8 5 54
8 7 41
9 0 49
9 1 100
9 3 23
9 4 46
9 5 125
9 7 66
9 8 63
